NAME : tsp_119_sol.txt
COMMENT : OR-Tools Guided Local Search
TYPE : TOUR
DIMENSION : 50
COST : 5692
STATUS : ROUTING_SUCCESS
GAP : 0.00% (Reference Solution)
TOUR_SECTION
1
34
22
5
20
15
16
42
26
45
25
50
44
7
41
37
46
33
43
28
24
30
49
14
36
6
12
40
10
39
9
38
47
8
23
13
27
4
35
19
2
48
18
32
31
17
29
11
3
21
-1
